1228732
0,4,34,97,100,81,44,33,51,28,15,106,93,45,80,1,58,83,50,24,82,2,62,19,43,31,94,5,60,42,84,29,102,55,91,73,47,20,12,92,95,86,61,18,72,75,49,17,6,87,64,59,105,54,32,77,107,41,11,35,7,27,39,67,104,98,70,46,96,88,90,10,48,30,38,13,69,68,26,85,74,56,71,37,40,25,36,8,76,65,9,63,21,103,57,53,101,99,52,16,79,14,22,66,3,78,23,108,89
